     Program PWSCF v.6.4.1 starts on  1Oct2020 at 18:58:58

     R & G space division:  proc/nbgrp/npool/nimage =      16
     Waiting for input...
     Reading input from standard input
Warning: card &IONS ignored
Warning: card / ignored

     Current dimensions of program PWSCF are:
     Max number of different atomic species (ntypx) = 10
     Max number of k-points (npk) =  40000
     Max angular momentum in pseudopotentials (lmaxx) =  3

     IMPORTANT: XC functional enforced from input :
     Exchange-correlation      = WC ( 1  4 11  4 0 0)
     Any further DFT definition will be discarded
     Please, verify this is what you really want

     Subspace diagonalization in iterative solution of the eigenvalue problem:
     a serial algorithm will be used

     bravais-lattice index     =           14
     lattice parameter (alat)  =       9.7841  a.u.
     unit-cell volume          =    2229.9467 (a.u.)^3
     number of atoms/cell      =           34
     number of atomic types    =            4
     number of electrons       =       144.00
     number of Kohn-Sham states=          144
     kinetic-energy cutoff     =      40.0000  Ry
     charge density cutoff     =     320.0000  Ry
     convergence threshold     =      1.0E-07
     mixing beta               =       0.2000
     number of iterations used =            8  plain     mixing
     Exchange-correlation      = WC ( 1  4 11  4 0 0)

     celldm(1)=   9.784060  celldm(2)=   1.736180  celldm(3)=   1.418960
     celldm(4)=  -0.026700  celldm(5)=  -0.255600  celldm(6)=   0.004100

     crystal axes: (cart. coord. in units of alat)
               a(1) = (   1.000000   0.000000   0.000000 )
               a(2) = (   0.007118   1.736165   0.000000 )
               a(3) = (  -0.362686  -0.036400   1.371343 )

     reciprocal axes: (cart. coord. in units 2 pi/alat)
               b(1) = (  1.000000 -0.004100  0.264366 )
               b(2) = (  0.000000  0.575982  0.015288 )
               b(3) = (  0.000000  0.000000  0.729212 )

     PseudoPot. # 1 for Al read from file:
     /home/rygrim1/bennettj_user/Work/Lead_oxides/PbCO3_14/Surface_calcs/QE_calcs/QE-PSPs/al_pbe_v1.uspp.F.UPF
     MD5 check sum: 0a6289f5291fc8f409219462bc851e1f
     Pseudo is Ultrasoft + core correction, Zval =  3.0
     Generated by new atomic code, or converted to UPF format
     Using radial grid of  893 points,  3 beta functions with:
                l(1) =   0
                l(2) =   1
                l(3) =   2
     Q(r) pseudized with  8 coefficients,  rinner =    0.900   0.900   0.900
                                                       0.900   0.900

     PseudoPot. # 2 for Si read from file:
     /home/rygrim1/bennettj_user/Work/Lead_oxides/PbCO3_14/Surface_calcs/QE_calcs/QE-PSPs/si_pbe_v1.uspp.F.UPF
     MD5 check sum: a056efeee980c13900f22a371efd63c1
     Pseudo is Ultrasoft + core correction, Zval =  4.0
     Generated by new atomic code, or converted to UPF format
     Using radial grid of  899 points,  6 beta functions with:
                l(1) =   0
                l(2) =   0
                l(3) =   1
                l(4) =   1
                l(5) =   2
                l(6) =   2
     Q(r) pseudized with  8 coefficients,  rinner =    0.900   0.900   0.900
                                                       0.900   0.900

     PseudoPot. # 3 for O  read from file:
     /home/rygrim1/bennettj_user/Work/Lead_oxides/PbCO3_14/Surface_calcs/QE_calcs/QE-PSPs/o_pbe_v1.2.uspp.F.UPF
     MD5 check sum: 734c27235a0248c51dbae37a1fbe46ec
     Pseudo is Ultrasoft + core correction, Zval =  6.0
     Generated by new atomic code, or converted to UPF format
     Using radial grid of  737 points,  5 beta functions with:
                l(1) =   0
                l(2) =   0
                l(3) =   1
                l(4) =   1
                l(5) =   2
     Q(r) pseudized with  8 coefficients,  rinner =    0.900   0.900   0.900
                                                       0.900   0.900

     PseudoPot. # 4 for H  read from file:
     /home/rygrim1/bennettj_user/Work/Lead_oxides/PbCO3_14/Surface_calcs/QE_calcs/QE-PSPs/h_pbe_v1.4.uspp.F.UPF
     MD5 check sum: 761ae9a214b05c3daf00ab9f6b793d6f
     Pseudo is Ultrasoft, Zval =  1.0
     Generated by new atomic code, or converted to UPF format
     Using radial grid of  615 points,  2 beta functions with:
                l(1) =   0
                l(2) =   0
     Q(r) pseudized with  8 coefficients,  rinner =    0.700

     atomic species   valence    mass     pseudopotential
        Al             3.00    26.98200     Al( 1.00)
        Si             4.00    28.08500     Si( 1.00)
        O              6.00    15.99990     O ( 1.00)
        H              1.00     1.00780     H ( 1.00)

     No symmetry found

   Cartesian axes

     site n.     atom                  positions (alat units)
         1           Al  tau(   1) = (   0.1957968   0.8351568   0.6335880  )
         2           Al  tau(   2) = (   0.1910591   1.4188789   0.6291218  )
         3           Al  tau(   3) = (   0.6921976  -0.0329333   0.6335951  )
         4           Al  tau(   4) = (   0.6875363   0.5507990   0.6291025  )
         5           Si  tau(   5) = (   0.0353528   0.5808748   0.0977402  )
         6           Si  tau(   6) = (   0.0506328   1.1511769   0.0998255  )
         7           Si  tau(   7) = (   0.5388376   1.4489568   0.0977675  )
         8           Si  tau(   8) = (   0.5471400   0.2830992   0.0997992  )
         9           O   tau(   9) = (   0.0061371   0.5962548   0.4075673  )
        10           O   tau(  10) = (   0.0770622   1.1343438   0.4093118  )
        11           O   tau(  11) = (   0.0792902   0.8650127  -0.0347831  )
        12           O   tau(  12) = (   0.2696521   0.3938088  -0.0030774  )
        13           O   tau(  13) = (   0.2754849   1.3294572  -0.0337062  )
        14           O   tau(  14) = (   0.5096304   1.4643547   0.4075921  )
        15           O   tau(  15) = (   0.5735298   0.2662866   0.4092889  )
        16           O   tau(  16) = (   0.5757452  -0.0030920  -0.0347696  )
        17           O   tau(  17) = (   0.7730988   1.2618176  -0.0030069  )
        18           O   tau(  18) = (   0.7720323   0.4613155  -0.0337446  )
        19           O   tau(  19) = (  -0.0029261  -0.0712584   0.4198833  )
        20           O   tau(  20) = (  -0.1942841   0.2613300   0.8061647  )
        21           O   tau(  21) = (  -0.1153259   0.7934419   0.8057639  )
        22           O   tau(  22) = (  -0.1127811   1.4593275   0.8157824  )
        23           O   tau(  23) = (   0.5006732   0.7968395   0.4198689  )
        24           O   tau(  24) = (   0.3092568   1.1294247   0.8061924  )
        25           O   tau(  25) = (   0.3810706  -0.0746176   0.8057807  )
        26           O   tau(  26) = (   0.3837099   0.5912751   0.8157874  )
        27           H   tau(  27) = (   0.0925154   0.0935184   0.4268321  )
        28           H   tau(  28) = (  -0.1385803   0.2667385   0.9875656  )
        29           H   tau(  29) = (  -0.1545235   0.8382736   0.9865800  )
        30           H   tau(  30) = (  -0.1422378   1.3889989   0.9898497  )
        31           H   tau(  31) = (   0.5961444   0.9616001   0.4267555  )
        32           H   tau(  32) = (   0.3649390   1.1348161   0.9876003  )
        33           H   tau(  33) = (   0.3419181  -0.0298343   0.9866137  )
        34           H   tau(  34) = (   0.3542462   0.5209526   0.9898548  )

     number of k points=   108  gaussian smearing, width (Ry)=  0.0200

     Number of k-points >= 100: set verbosity='high' to print them.

     Initial potential from superposition of free atoms

     starting charge  143.98736, renormalised to  144.00000
     Starting wfcs are  112 randomized atomic wfcs +   32 random wfcs

     Self-consistent Calculation

     iteration #  1     ecut=    40.00 Ry     beta= 0.20
     Davidson diagonalization with overlap
     ethr =  1.00E-02,  avg # of iterations =  5.3

     total energy              =    -657.77994533 Ry
     Harris-Foulkes estimate   =    -659.52919893 Ry
     estimated scf accuracy    <       6.13646542 Ry

[...]

     negative rho (up, down):  3.696E-08 0.000E+00

[...]

     total energy              =    -657.67567942 Ry
     Harris-Foulkes estimate   =    -657.67567462 Ry
     estimated scf accuracy    <       0.00000041 Ry

     iteration # 11     ecut=    40.00 Ry     beta= 0.20
     Davidson diagonalization with overlap
     ethr =  2.86E-10,  avg # of iterations =  2.0

     negative rho (up, down):  1.688E-07 0.000E+00

     End of self-consistent calculation

     Number of k-points >= 100: set verbosity='high' to print the bands.

     the Fermi energy is     5.1311 ev

!    total energy              =    -657.67568798 Ry
     Harris-Foulkes estimate   =    -657.67567950 Ry
     estimated scf accuracy    <       0.00000002 Ry

     The total energy is the sum of the following terms:

     one-electron contribution =    -298.88114806 Ry
     hartree contribution      =     227.77945461 Ry
     xc contribution           =    -173.08235603 Ry
     ewald contribution        =    -413.49163851 Ry
     smearing contrib. (-TS)   =      -0.00000000 Ry

     convergence has been achieved in  11 iterations

     Writing output data file kaol.save/

     General routines

     Parallel routines

   This run was terminated on:  19: 6:28   1Oct2020

   JOB DONE.