     Program PWSCF v.6.4.1 starts on  1Oct2020 at 15:36:59

     R & G space division:  proc/nbgrp/npool/nimage =      16
     Waiting for input...
     Reading input from standard input
Warning: card &IONS ignored
Warning: card / ignored

     Current dimensions of program PWSCF are:
     Max number of different atomic species (ntypx) = 10
     Max number of k-points (npk) =  40000
     Max angular momentum in pseudopotentials (lmaxx) =  3

     IMPORTANT: XC functional enforced from input :
     Exchange-correlation      = WC ( 1  4 11  4 0 0)
     Any further DFT definition will be discarded
     Please, verify this is what you really want

     Subspace diagonalization in iterative solution of the eigenvalue problem:
     a serial algorithm will be used

     bravais-lattice index     =           14
     lattice parameter (alat)  =      19.5695  a.u.
     unit-cell volume          =   15617.8321 (a.u.)^3
     number of atoms/cell      =           72
     number of atomic types    =            5
     number of electrons       =       312.00
     number of Kohn-Sham states=          312
     kinetic-energy cutoff     =      40.0000  Ry
     charge density cutoff     =     320.0000  Ry
     convergence threshold     =      1.0E-07
     mixing beta               =       0.2000
     number of iterations used =            8  plain     mixing
     Exchange-correlation      = WC ( 1  4 11  4 0 0)

     celldm(1)=  19.569520  celldm(2)=   0.868195  celldm(3)=   2.483480
     celldm(4)=  -0.028100  celldm(5)=  -0.255200  celldm(6)=   0.003900

     crystal axes: (cart. coord. in units of alat)
               a(1) = (   1.000000   0.000000   0.000000 )
               a(2) = (   0.003386   0.868188   0.000000 )
               a(3) = (  -0.633784  -0.067315   2.400304 )

     reciprocal axes: (cart. coord. in units 2 pi/alat)
               b(1) = (  1.000000 -0.003900  0.263934 )
               b(2) = (  0.000000  1.151824  0.032302 )
               b(3) = (  0.000000  0.000000  0.416614 )

     PseudoPot. # 1 for Al read from file:
     /home/rygrim1/bennettj_user/Work/Lead_oxides/PbCO3_14/Surface_calcs/QE_calcs/QE-PSPs/al_pbe_v1.uspp.F.UPF
     MD5 check sum: 0a6289f5291fc8f409219462bc851e1f
     Pseudo is Ultrasoft + core correction, Zval =  3.0
     Generated by new atomic code, or converted to UPF format
     Using radial grid of  893 points,  3 beta functions with:
                l(1) =   0
                l(2) =   1
                l(3) =   2
     Q(r) pseudized with  8 coefficients,  rinner =    0.900   0.900   0.900
                                                       0.900   0.900

     PseudoPot. # 2 for Si read from file:
     /home/rygrim1/bennettj_user/Work/Lead_oxides/PbCO3_14/Surface_calcs/QE_calcs/QE-PSPs/si_pbe_v1.uspp.F.UPF
     MD5 check sum: a056efeee980c13900f22a371efd63c1
     Pseudo is Ultrasoft + core correction, Zval =  4.0
     Generated by new atomic code, or converted to UPF format
     Using radial grid of  899 points,  6 beta functions with:
                l(1) =   0
                l(2) =   0
                l(3) =   1
                l(4) =   1
                l(5) =   2
                l(6) =   2
     Q(r) pseudized with  8 coefficients,  rinner =    0.900   0.900   0.900
                                                       0.900   0.900

     PseudoPot. # 3 for O  read from file:
     /home/rygrim1/bennettj_user/Work/Lead_oxides/PbCO3_14/Surface_calcs/QE_calcs/QE-PSPs/o_pbe_v1.2.uspp.F.UPF
     MD5 check sum: 734c27235a0248c51dbae37a1fbe46ec
     Pseudo is Ultrasoft + core correction, Zval =  6.0
     Generated by new atomic code, or converted to UPF format
     Using radial grid of  737 points,  5 beta functions with:
                l(1) =   0
                l(2) =   0
                l(3) =   1
                l(4) =   1
                l(5) =   2
     Q(r) pseudized with  8 coefficients,  rinner =    0.900   0.900   0.900
                                                       0.900   0.900

     PseudoPot. # 4 for H  read from file:
     /home/rygrim1/bennettj_user/Work/Lead_oxides/PbCO3_14/Surface_calcs/QE_calcs/QE-PSPs/h_pbe_v1.4.uspp.F.UPF
     MD5 check sum: 761ae9a214b05c3daf00ab9f6b793d6f
     Pseudo is Ultrasoft, Zval =  1.0
     Generated by new atomic code, or converted to UPF format
     Using radial grid of  615 points,  2 beta functions with:
                l(1) =   0
                l(2) =   0
     Q(r) pseudized with  8 coefficients,  rinner =    0.700

     PseudoPot. # 5 for S  read from file:
     /home/rygrim1/bennettj_user/Work/Lead_oxides/PbCO3_14/Surface_calcs/QE_calcs/QE-PSPs/s_pbe_v1.4.uspp.F.UPF
     MD5 check sum: 88d86576ff6df21479756cfb9bdac1df
     Pseudo is Ultrasoft + core correction, Zval =  6.0
     Generated by new atomic code, or converted to UPF format
     Using radial grid of  907 points,  6 beta functions with:
                l(1) =   0
                l(2) =   0
                l(3) =   1
                l(4) =   1
                l(5) =   2
                l(6) =   2
     Q(r) pseudized with  8 coefficients,  rinner =    1.300   1.300   1.300
                                                       1.300   1.300

     atomic species   valence    mass     pseudopotential
        Al             3.00    26.98200     Al( 1.00)
        Si             4.00    28.08500     Si( 1.00)
        O              6.00    15.99990     O ( 1.00)
        H              1.00     1.00780     H ( 1.00)
        S              6.00    32.06500     S ( 1.00)

     No symmetry found

   Cartesian axes

     site n.     atom                  positions (alat units)
         1           Al  tau(   1) = (   0.1051583   0.4134445   0.3231520  )
         2           Al  tau(   2) = (   0.1114035   0.6996596   0.3118823  )
         3           Al  tau(   3) = (   0.3460528  -0.0155831   0.3171452  )
         4           Al  tau(   4) = (   0.3538179   0.2719814   0.3201246  )
         5           Al  tau(   5) = (   0.6044844   0.4176425   0.3184616  )
         6           Al  tau(   6) = (   0.5913872   0.7092734   0.3140162  )
         7           Al  tau(   7) = (   0.8302301  -0.0106231   0.3197138  )
         8           Al  tau(   8) = (   0.8528603   0.2748896   0.3243325  )
         9           Si  tau(   9) = (   0.0185560   0.2840882   0.0582458  )
        10           Si  tau(  10) = (   0.0274352   0.5688478   0.0566195  )
        11           Si  tau(  11) = (   0.2695105   0.7195048   0.0516768  )
        12           Si  tau(  12) = (   0.2737562   0.1360624   0.0558265  )
        13           Si  tau(  13) = (   0.5181355   0.2846874   0.0569794  )
        14           Si  tau(  14) = (   0.5271725   0.5689389   0.0551793  )
        15           Si  tau(  15) = (   0.7683004   0.7200228   0.0574455  )
        16           Si  tau(  16) = (   0.7754017   0.1369354   0.0576235  )
        17           O   tau(  17) = (   0.0063909   0.2930689   0.2162860  )
        18           O   tau(  18) = (   0.0474527   0.5614591   0.2138281  )
        19           O   tau(  19) = (   0.0459835   0.4257163  -0.0038084  )
        20           O   tau(  20) = (   0.1310447   0.1847822   0.0141321  )
        21           O   tau(  21) = (   0.1336892   0.6653895  -0.0067507  )
        22           O   tau(  22) = (   0.2540579   0.7307124   0.2094575  )
        23           O   tau(  23) = (   0.5056839   0.2966847   0.2144755  )
        24           O   tau(  24) = (   0.5452984   0.5612563   0.2128427  )
        25           O   tau(  25) = (   0.5484161   0.4255101  -0.0054387  )
        26           O   tau(  26) = (   0.6299509   0.1810269   0.0188460  )
        27           O   tau(  27) = (   0.6348554   0.6657961  -0.0053819  )
        28           O   tau(  28) = (   0.7488585   0.7339735   0.2148306  )
        29           O   tau(  29) = (   0.2884231   0.1286244   0.2133444  )
        30           O   tau(  30) = (   0.2950669  -0.0069987  -0.0074865  )
        31           O   tau(  31) = (   0.3823792   0.6162613   0.0166925  )
        32           O   tau(  32) = (   0.3835346   0.2312401  -0.0035027  )
        33           O   tau(  33) = (  -0.0075686  -0.0488113   0.2426465  )
        34           O   tau(  34) = (   0.7914770   0.1313890   0.2153372  )
        35           O   tau(  35) = (   0.7972973  -0.0072197  -0.0022363  )
        36           O   tau(  36) = (   0.8811877   0.6164080   0.0243862  )
        37           O   tau(  37) = (   0.8827649   0.2328606  -0.0028780  )
        38           O   tau(  38) = (   0.4953395  -0.0411547   0.2124120  )
        39           O   tau(  39) = (  -0.1015504   0.1222592   0.4178760  )
        40           O   tau(  40) = (  -0.0459238   0.3898567   0.4176931  )
        41           O   tau(  41) = (  -0.1061552   0.6955018   0.4298832  )
        42           O   tau(  42) = (   0.2566321   0.3958393   0.2232909  )
        43           O   tau(  43) = (   0.1557845   0.5643781   0.4202393  )
        44           O   tau(  44) = (   0.1888936  -0.0383945   0.4097527  )
        45           O   tau(  45) = (   0.2022208   0.2903347   0.4179116  )
        46           O   tau(  46) = (   0.4114835   0.1236461   0.4138039  )
        47           O   tau(  47) = (   0.4506775   0.3992144   0.4139232  )
        48           O   tau(  48) = (   0.4382182   0.7194050   0.4092452  )
        49           O   tau(  49) = (   0.7564876   0.3942720   0.2214284  )
        50           O   tau(  50) = (   0.6720072   0.5706881   0.4112239  )
        51           O   tau(  51) = (   0.6721933  -0.0259252   0.4131832  )
        52           O   tau(  52) = (   0.6999421   0.3004376   0.4197865  )
        53           H   tau(  53) = (   0.0392777   0.0341873   0.2374285  )
        54           H   tau(  54) = (  -0.0677309   0.1079322   0.5053975  )
        55           H   tau(  55) = (  -0.0636940   0.4338620   0.5002299  )
        56           H   tau(  56) = (  -0.1806614   0.6297106   0.4113999  )
        57           H   tau(  57) = (   0.2992698   0.4703133   0.1831356  )
        58           H   tau(  58) = (   0.1215698   0.5657068   0.5096161  )
        59           H   tau(  59) = (   0.1806396  -0.0362345   0.5040845  )
        60           H   tau(  60) = (   0.1586978   0.2123315   0.4490311  )
        61           H   tau(  61) = (   0.5369324   0.0302995   0.1659622  )
        62           H   tau(  62) = (   0.5041434   0.1065675   0.4278766  )
        63           H   tau(  63) = (   0.4445185   0.3995571   0.5080968  )
        64           H   tau(  64) = (   0.3883697   0.6393396   0.4217327  )
        65           H   tau(  65) = (   0.7979910   0.4647565   0.1735881  )
        66           H   tau(  66) = (   0.6612358   0.5756051   0.5057239  )
        67           H   tau(  67) = (   0.6866901  -0.0510482   0.5047785  )
        68           H   tau(  68) = (   0.6648658   0.2278190   0.4687439  )
        69           O   tau(  69) = (  -0.2265311   0.7146844   0.6361063  )
        70           S   tau(  70) = (  -0.0924605   0.7008767   0.5945542  )
        71           O   tau(  71) = (  -0.0097721   0.8129701   0.6124717  )
        72           O   tau(  72) = (  -0.0326615   0.5763466   0.6237645  )

     number of k points=     9  gaussian smearing, width (Ry)=  0.0200
                       cart. coord. in units 2pi/alat
        k(    1) = (   0.1666667   0.0953353  -0.1616261), wk =   0.2222222
        k(    2) = (   0.1666667   0.2873059  -0.1562425), wk =   0.2222222
        k(    3) = (   0.1666667   0.4792766  -0.1508588), wk =   0.2222222
        k(    4) = (   0.1666667  -0.4805766  -0.1777771), wk =   0.2222222
        k(    5) = (   0.1666667  -0.2886059  -0.1723935), wk =   0.2222222
        k(    6) = (   0.1666667  -0.0966353  -0.1670098), wk =   0.2222222
        k(    7) = (  -0.5000000   0.0979353  -0.3375821), wk =   0.2222222
        k(    8) = (  -0.5000000   0.2899059  -0.3321984), wk =   0.2222222
        k(    9) = (  -0.5000000   0.4818766  -0.3268147), wk =   0.2222222

     Initial potential from superposition of free atoms

     starting charge  311.97467, renormalised to  312.00000

     negative rho (up, down):  4.172E-03 0.000E+00
     Starting wfcs are  240 randomized atomic wfcs +   72 random wfcs

     Self-consistent Calculation

     iteration #  1     ecut=    40.00 Ry     beta= 0.20
     Davidson diagonalization with overlap
     ethr =  1.00E-02,  avg # of iterations =  6.0

     negative rho (up, down):  4.459E-03 0.000E+00

     total energy              =   -1436.19506045 Ry
     Harris-Foulkes estimate   =   -1440.00081175 Ry
     estimated scf accuracy    <      13.30156223 Ry

[...]

     total energy              =   -1435.99414434 Ry
     Harris-Foulkes estimate   =   -1435.99413977 Ry
     estimated scf accuracy    <       0.00000014 Ry

     iteration # 12     ecut=    40.00 Ry     beta= 0.20
     Davidson diagonalization with overlap
     ethr =  4.62E-11,  avg # of iterations =  2.0

     negative rho (up, down):  1.038E-02 0.000E+00

     End of self-consistent calculation

          k = 0.1667 0.0953-0.1616 ( 66687 PWs)   bands (ev):

   -26.9941 -23.8697 -23.6947 -23.4896 -23.3139 -23.2113 -23.0756 -23.0517
   -22.9492 -22.9103 -22.8785 -22.7300 -22.5913 -22.5692 -22.5147 -22.4159
   -22.3502 -22.3010 -22.1215 -22.0754 -22.0469 -22.0092 -21.9677 -21.9487
   -21.9307 -21.9212 -21.8757 -21.8644 -21.7797 -21.7255 -21.6910 -21.5924
   -21.5715 -21.5366 -21.4849 -21.4486 -21.3435 -21.2863 -21.2492 -13.4517
   -13.2656 -12.4478 -12.2890 -12.0082 -11.7231 -11.4867 -11.4552 -11.3111
   -11.1952 -11.1484 -11.0715 -10.9851 -10.7989 -10.7178 -10.6757 -10.5143
   -10.4845 -10.3852 -10.3520 -10.3155 -10.0310  -9.8645  -9.7625  -9.6923
    -9.5834  -9.4147  -9.3670  -9.2770  -9.2331  -9.1628  -9.1120  -9.0930
    -9.0578  -9.0157  -8.9523  -8.8798  -8.8463  -8.7659  -8.7285  -8.6369
    -8.5745  -8.4085  -8.3139  -8.1922  -8.1093  -8.0243  -7.9943  -7.7999
    -7.7375  -7.6961  -7.5826  -7.4926  -7.4316  -7.3623  -7.2636  -7.2268
    -7.1970  -7.1285  -6.9756  -6.8946  -6.8414  -6.8089  -6.7430  -6.6678
    -6.6393  -6.6166  -6.5615  -6.5297  -6.4920  -6.4708  -6.4176  -6.3592
    -6.3388  -6.2928  -6.2468  -6.1770  -6.1490  -6.1244  -6.0741  -6.0016
    -5.9626  -5.9016  -5.8819  -5.8384  -5.8152  -5.7766  -5.7258  -5.7107
    -5.6823  -5.6604  -5.6363  -5.5827  -5.5497  -5.5057  -5.4436  -5.3616
    -5.3391  -5.3002  -5.2710  -5.2542  -5.1972  -5.1721  -5.1358  -5.0878
    -5.0378  -4.9994  -4.9623  -4.8885  -4.8643  -4.7825  -4.7781  -4.7409
    -4.6530  -4.6299  -4.5643  -4.5083   0.8627   1.8030   2.0294   2.5052
     2.5816   2.7675   2.8486   2.9514   2.9940   3.1540   3.2456   3.3382
     3.5093   3.5335   3.6480   3.6921   3.8593   3.8792   3.9359   3.9857
     4.0881   4.1364   4.2501   4.3107   4.3485   4.3822   4.4300   4.4714
     4.5082   4.5552   4.5941   4.6584   4.6836   4.7597   4.7875   4.8104
     4.8395   4.8705   4.9370   4.9904   5.0274   5.0447   5.0964   5.1351
     5.1589   5.1863   5.2282   5.2765   5.3030   5.3334   5.3499   5.4097
     5.4804   5.4952   5.5225   5.6210   5.6345   5.7206   5.7524   5.7831
     5.8221   5.9022   5.9354   5.9792   6.0229   6.0758   6.1113   6.1685
     6.1760   6.2261   6.2394   6.2886   6.3196   6.3694   6.4017   6.4329
     6.4858   6.5463   6.5963   6.6168   6.6747   6.7291   6.7603   6.7877
     6.8473   6.8730   6.9347   7.0019   7.0532   7.0701   7.1081   7.1648
     7.2126   7.2499   7.2955   7.3349   7.3709   7.3973   7.4386   7.4622
     7.4963   7.5406   7.5682   7.5857   7.6531   7.6973   7.7383   7.8098
     7.8266   7.8758   7.9104   7.9865   8.0073   8.0270   8.0734   8.0962
     8.1316   8.1825   8.2211   8.2341   8.2682   8.2882   8.3373   8.3595
     8.3933   8.4358   8.4567   8.5189   8.5573   8.5826   8.6088   8.6631
     8.7094   8.7445   8.7746   8.8045   8.8703   8.8989   8.9304   8.9848
     9.0232   9.0563   9.0876   9.1613   9.1643   9.2042   9.2559   9.2607
     9.2893   9.3238   9.3437   9.3889   9.4259   9.4743   9.4897   9.5095

[...]

          k = 0.1667-0.0966-0.1670 ( 66677 PWs)   bands (ev):

[...]

          k =-0.5000 0.0979-0.3376 ( 66700 PWs)   bands (ev):

[...]

          k =-0.5000 0.4819-0.3268 ( 66729 PWs)   bands (ev):

   -26.9940 -23.7828 -23.6009 -23.5685 -23.4809 -23.4218 -23.0761 -23.0540
   -22.8501 -22.7715 -22.7190 -22.6671 -22.6174 -22.5657 -22.4640 -22.4415
   -22.3883 -22.2925 -22.1870 -22.1452 -22.0406 -22.0185 -21.9819 -21.9668
   -21.9202 -21.9094 -21.8916 -21.8760 -21.7775 -21.7536 -21.6785 -21.6471
   -21.5702 -21.4878 -21.4704 -21.4370 -21.3519 -21.2645 -21.2520 -13.4493
   -12.7573 -12.6888 -12.5240 -12.4253 -11.6698 -11.5024 -11.4459 -11.2622
   -11.1967 -11.1626 -11.0349 -10.9880 -10.7479 -10.6614 -10.5663 -10.5384
   -10.4366 -10.3582 -10.3012 -10.1860 -10.0203  -9.8486  -9.7253  -9.5807
    -9.4603  -9.4576  -9.4149  -9.3795  -9.2768  -9.2451  -9.1822  -9.1545
    -9.0928  -9.0328  -9.0143  -8.9626  -8.9023  -8.7978  -8.7698  -8.7064
    -8.5916  -8.3847  -8.2062  -8.0804  -8.0218  -7.9980  -7.9135  -7.8167
    -7.7524  -7.6906  -7.6050  -7.4769  -7.2785  -7.2220  -7.1396  -7.1063
    -7.0725  -7.0220  -6.9781  -6.9339  -6.8487  -6.8128  -6.7670  -6.7291
    -6.6888  -6.6621  -6.6125  -6.5847  -6.5259  -6.5034  -6.4490  -6.4230
    -6.3959  -6.3490  -6.2682  -6.2001  -6.1771  -6.1421  -6.1014  -6.0541
    -5.9885  -5.8988  -5.8640  -5.8427  -5.8005  -5.7738  -5.7489  -5.7059
    -5.6823  -5.6680  -5.6365  -5.5635  -5.5191  -5.4766  -5.4109  -5.3851
    -5.3519  -5.3388  -5.3074  -5.2598  -5.2348  -5.1887  -5.1461  -5.1042
    -5.0489  -5.0000  -4.9702  -4.9161  -4.8419  -4.8173  -4.7803  -4.7117
    -4.6715  -4.6169  -4.5650  -4.5109   1.6038   1.7386   2.0542   2.2426
     2.4818   2.5447   2.6757   2.8101   2.9124   3.3262   3.3714   3.5069
     3.6053   3.6575   3.6623   3.7227   3.8032   3.8498   3.8839   3.9549
     4.0014   4.0459   4.1510   4.1969   4.2344   4.2936   4.3355   4.3672
     4.4207   4.4412   4.4659   4.5189   4.6062   4.6608   4.6895   4.7591
     4.8045   4.8581   4.8715   4.9109   4.9843   5.0013   5.0739   5.1253
     5.1446   5.2137   5.2563   5.2803   5.3579   5.4040   5.4440   5.4745
     5.5427   5.5969   5.6548   5.6718   5.7482   5.8409   5.8859   6.0134
     6.0319   6.0687   6.1140   6.1377   6.1965   6.2543   6.2735   6.3250
     6.3455   6.4026   6.4198   6.4668   6.4802   6.5362   6.5831   6.6011
     6.6635   6.6911   6.7035   6.7334   6.7740   6.7922   6.8414   6.8518
     6.8969   6.9188   6.9558   6.9805   7.0632   7.0901   7.1382   7.1633
     7.1926   7.2187   7.2602   7.3320   7.3597   7.3923   7.4150   7.4687
     7.4975   7.5344   7.5747   7.5984   7.6321   7.6575   7.7110   7.7268
     7.7677   7.8014   7.8467   7.8759   7.8863   7.9448   8.0051   8.0286
     8.0518   8.0996   8.1172   8.1460   8.1811   8.2292   8.2701   8.3204
     8.3313   8.4169   8.4319   8.4603   8.4823   8.5073   8.5402   8.5770
     8.6065   8.6400   8.6566   8.6732   8.7267   8.7885   8.8067   8.8482
     8.8818   8.9003   8.9580   8.9744   9.0161   9.0837   9.0989   9.1453
     9.1635   9.1776   9.2347   9.2479   9.2806   9.3414   9.3981   9.4142

     the Fermi energy is    -1.6909 ev

!    total energy              =   -1435.99415235 Ry
     Harris-Foulkes estimate   =   -1435.99414438 Ry
     estimated scf accuracy    <       0.00000008 Ry

     The total energy is the sum of the following terms:

     one-electron contribution =  -15562.37062595 Ry
     hartree contribution      =    7866.80978102 Ry
     xc contribution           =    -376.32388535 Ry
     ewald contribution        =    6635.89057793 Ry
     smearing contrib. (-TS)   =      -0.00000000 Ry

     convergence has been achieved in  12 iterations

     Writing output data file kaol.save/

     General routines

     Parallel routines

   This run was terminated on:  16: 1: 8   1Oct2020

   JOB DONE.